kp_lp_files/eil51_n50_uncorr_01-kp.lp
MAXIMIZE
119 z0 + 187 z1 + 997 z2 + 22 z3 + 347 z4 + 522 z5 + 730 z6 + 705 z7 + 232 z8 + 554 z9 + 675 z10 + 970 z11 + 407 z12 + 276 z13 + 331 z14 + 361 z15 + 798 z16 + 427 z17 + 439 z18 + 91 z19 + 650 z20 + 10 z21 + 838 z22 + 725 z23 + 843 z24 + 137 z25 + 977 z26 + 718 z27 + 99 z28 + 609 z29 + 819 z30 + 97 z31 + 975 z32 + 226 z33 + 241 z34 + 584 z35 + 348 z36 + 475 z37 + 178 z38 + 641 z39 + 898 z40 + 250 z41 + 391 z42 + 101 z43 + 636 z44 + 87 z45 + 652 z46 + 867 z47 + 54 z48 + 509 z49
SUBJECT TO
1 z0 + 896 z1 + 367 z2 + 690 z3 + 613 z4 + 874 z5 + 122 z6 + 486 z7 + 823 z8 + 463 z9 + 589 z10 + 325 z11 + 1000 z12 + 776 z13 + 123 z14 + 356 z15 + 305 z16 + 47 z17 + 645 z18 + 139 z19 + 247 z20 + 211 z21 + 100 z22 + 627 z23 + 760 z24 + 776 z25 + 475 z26 + 937 z27 + 101 z28 + 281 z29 + 751 z30 + 530 z31 + 240 z32 + 248 z33 + 768 z34 + 31 z35 + 613 z36 + 881 z37 + 367 z38 + 712 z39 + 410 z40 + 157 z41 + 824 z42 + 242 z43 + 472 z44 + 722 z45 + 775 z46 + 371 z47 + 337 z48 + 885 z49 <= 2226
BINARIES
z0
z1
z2
z3
z4
z5
z6
z7
z8
z9
z10
z11
z12
z13
z14
z15
z16
z17
z18
z19
z20
z21
z22
z23
z24
z25
z26
z27
z28
z29
z30
z31
z32
z33
z34
z35
z36
z37
z38
z39
z40
z41
z42
z43
z44
z45
z46
z47
z48
z49
END