kp_sol_files/eil51_n50_uncorr_01-kp.sol
# Objective value = 8028
z0 1
z1 0
z2 1
z3 0
z4 0
z5 0
z6 1
z7 0
z8 0
z9 0
z10 0
z11 1
z12 0
z13 0
z14 1
z15 0
z16 1
z17 1
z18 0
z19 0
z20 1
z21 0
z22 1
z23 0
z24 0
z25 0
z26 0
z27 0
z28 0
z29 1
z30 0
z31 0
z32 1
z33 0
z34 0
z35 1
z36 0
z37 0
z38 0
z39 0
z40 0
z41 0
z42 0
z43 0
z44 0
z45 0
z46 0
z47 0
z48 0
z49 0
